
<<< setup


<<< generate

Version identifier: 22.1.1.0 | 2022-11-28 | 9160aff4d
CPXPARAM_TimeLimit                               1800
Found incumbent of value 0.000000 after 0.00 sec. (0.01 ticks)
Tried aggregator 3 times.
MIP Presolve eliminated 14 rows and 42 columns.
MIP Presolve modified 157 coefficients.
Aggregator did 231 substitutions.
Reduced MIP has 358 rows, 336 columns, and 910 nonzeros.
Reduced MIP has 217 binaries, 14 generals, 0 SOSs, and 0 indicators.
Presolve time = 0.00 sec. (1.19 ticks)
Probing fixed 0 vars, tightened 42 bounds.
Probing time = 0.00 sec. (0.76 ticks)
Tried aggregator 2 times.
Detecting symmetries...
Aggregator did 21 substitutions.
Reduced MIP has 337 rows, 315 columns, and 889 nonzeros.
Reduced MIP has 217 binaries, 98 generals, 0 SOSs, and 0 indicators.
Presolve time = 0.00 sec. (1.06 ticks)
Probing time = 0.00 sec. (0.63 ticks)
Clique table members: 792.
MIP emphasis: balance optimality and feasibility.
MIP search method: dynamic search.
Parallel mode: deterministic, using up to 8 threads.
Root relaxation solution time = 0.00 sec. (0.48 ticks)

        Nodes                                         Cuts/
   Node  Left     Objective  IInf  Best Integer    Best Bound    ItCnt     Gap

*     0+    0                            0.0000       16.0000              --- 
*     0+    0                            4.0000       16.0000           300.00%
      0     0       15.0000    60        4.0000       15.0000       91  275.00%
      0     0       15.0000     6        4.0000       Cuts: 4       93  275.00%
*     0+    0                           14.0000       15.0000             7.14%
      0     0       15.0000     4       14.0000      Cuts: 12      104    7.14%
*     0+    0                           15.0000       15.0000             0.00%
      0     0        cutoff             15.0000       15.0000      104    0.00%
Elapsed time = 0.03 sec. (14.94 ticks, tree = 0.01 MB, solutions = 4)

Clique cuts applied:  5
Implied bound cuts applied:  4
Lift and project cuts applied:  2
Gomory fractional cuts applied:  2

Root node processing (before b&c):
  Real time             =    0.03 sec. (14.97 ticks)
Parallel b&c, 8 threads:
  Real time             =    0.00 sec. (0.00 ticks)
  Sync time (average)   =    0.00 sec.
  Wait time (average)   =    0.00 sec.
                          ------------
Total (root+branch&cut) =    0.03 sec. (14.97 ticks)

<<< solve


OBJECTIVE: 15

<<< post process


<<< done

